51706
37,134,254,307,331,435,476,643,683,725,830,937,1014,1143,1161,1322,1361,1455,1457,1595,2207,2211,2247,2329,2412,2499,2504,2591,2598,2685,2744,2788,2859,2860,2896,3032,3169,3173,3216,3232,3290,3339,3351,3409,3675,3721,3874,3956,4014,4026,4183,4237,4321,4336,4362,4487,4512,4599,4648,4684,4689,4753,4783,4908,4975,4977,5002,5042,5055,5063,5079,5101,5136,5245,5260,5274,5296,5305,5476,5531,5753,5836,5971,6019,6067,6096,6107,6157,6287,6304,6307,6393,6478,6507,6526,6528,6537,6639,6659,6725,6860,6940,6980,6993,7041,7097,7117,7120,7487,7490,7723,7776,7812,7888,7954,7964,7974,8018,8059,8115,8165,8358,8363,8515,8557,8563,8579,8595,8611,8632,8712,8738,8819,9094,9207,9272,9424,9436,9616,9698,9779,9784,9812,9986,9996
